<number of tasks>
20

<cycle time>
1000

<order strength>
0,3


<task times>
1 132
2 239
3 32
4 90
5 221
6 465
7 20
8 102
9 36
10 334
11 421
12 185
13 228
14 131
15 67
16 56
17 227
18 76
19 230
20 248

<precedence relations>
1,10
3,5
3,8
4,6
4,7
4,9
5,10
6,10
7,10
8,11
8,14
8,15
9,12
9,13
10,16
10,17
10,18
10,19
17,20

<end>
